p cnf 24 82
-6 0
-7 0
-8 0
-7 -8 -1 -9 0
-7 -8 -1 -10 0
 7  8 -1 -9 0
 7  8 -1  10 0
 7 -8 -1 6 0
 7 -8  1 -9 0
 7 -8  1 -10 0
 7  8  1  9 0
 7  8  1  10 0
-7 -8  1 6 0
-7  8  0
-9 -10 -2 -11 0
-9 -10 -2 -12 0
 9  10 -2 -11 0
 9  10 -2  12 0
 9 -10 -2 6 0
 9 -10  2 -11 0
 9 -10  2 -12 0
 9  10  2  11 0
 9  10  2  12 0
-9 -10  2 6 0
-9  10  0
-11 -12 -3 -13 0
-11 -12 -3 -14 0
 11  12 -3 -13 0
 11  12 -3  14 0
 11 -12 -3 6 0
 11 -12  3 -13 0
 11 -12  3 -14 0
 11  12  3  13 0
 11  12  3  14 0
-11 -12  3 6 0
-11  12  0
-13 -14 -4 -15 0
-13 -14 -4 -16 0
 13  14 -4 -15 0
 13  14 -4  16 0
 13 -14 -4 6 0
 13 -14  4 -15 0
 13 -14  4 -16 0
 13  14  4  15 0
 13  14  4  16 0
-13 -14  4 6 0
-13  14  0
-15 -16 -5 -17 0
-15 -16 -5 -18 0
 15  16 -5 -17 0
 15  16 -5  18 0
 15 -16 -5 6 0
 15 -16  5 -17 0
 15 -16  5 -18 0
 15  16  5  17 0
 15  16  5  18 0
-15 -16  5 6 0
-15  16  0
-19 0
-20 0
-19 -20 -2 -21 0
-19 -20 -2 -22 0
 19  20 -2 -21 0
 19  20 -2  22 0
 19 -20 -2 6 0
 19 -20  2 -21 0
 19 -20  2 -22 0
 19  20  2  21 0
 19  20  2  22 0
-19 -20  2 6 0
-19  20  0
-21 -22 -4 -23 0
-21 -22 -4 -24 0
 21  22 -4 -23 0
 21  22 -4  24 0
 21 -22 -4 6 0
 21 -22  4 -23 0
 21 -22  4 -24 0
 21  22  4  23 0
 21  22  4  24 0
-21 -22  4 6 0
-21  22  0
